
Gurobi 11.0.0 (win64) logging started Fri May  3 16:47:02 2024

Set parameter LogFile to value "./Results/StripPacking-CutHeurRuns/Logs/RU-110-StripPacking-10.log"
Set parameter TimeLimit to value 10800
Set parameter Cuts to value 1
Set parameter Presolve to value 1
Set parameter Heuristics to value 0
Set parameter LPWarmStart to value 2
Gurobi Optimizer version 11.0.0 build v11.0.0rc2 (win64 - Windows 10.0 (19045.2))

CPU model: Intel(R) Core(TM) i9-10980XE CPU @ 3.00GHz, instruction set [SSE2|AVX|AVX2|AVX512]
Thread count: 18 physical cores, 36 logical processors, using up to 18 threads

Optimize a model with 685 rows, 201 columns and 1820 nonzeros
Model fingerprint: 0x0cf9fee5
Variable types: 21 continuous, 180 integer (180 binary)
Coefficient statistics:
  Matrix range     [1e+00, 1e+04]
  Objective range  [1e+00, 1e+00]
  Bounds range     [1e+00, 1e+04]
  RHS range        [1e+00, 1e+04]

Warning: Completing partial solution with 180 unfixed non-continuous variables out of 180
User MIP start produced solution with objective 50 (0.00s)
Loaded user MIP start with objective 50

Presolve removed 128 rows and 22 columns
Presolve time: 0.00s
Presolved: 557 rows, 179 columns, 1724 nonzeros
Variable types: 21 continuous, 158 integer (158 binary)

Root relaxation: objective 3.500000e+01, 173 iterations, 0.00 seconds (0.00 work units)

    Nodes    |    Current Node    |     Objective Bounds      |     Work
 Expl Unexpl |  Obj  Depth IntInf | Incumbent    BestBd   Gap | It/Node Time

     0     0   35.00000    0    4   50.00000   35.00000  30.0%     -    0s
     0     0   35.00000    0   10   50.00000   35.00000  30.0%     -    0s
     0     0   35.00000    0    5   50.00000   35.00000  30.0%     -    0s
     0     0   35.00000    0    5   50.00000   35.00000  30.0%     -    0s
H    0     0                      46.0000000   35.00000  23.9%     -    0s
     0     0   35.00000    0    7   46.00000   35.00000  23.9%     -    0s
     0     0   35.00000    0   11   46.00000   35.00000  23.9%     -    0s
     0     0   35.00000    0   11   46.00000   35.00000  23.9%     -    0s
     0     0   35.00000    0   11   46.00000   35.00000  23.9%     -    0s
     0     0   35.00000    0    8   46.00000   35.00000  23.9%     -    0s
     0     0   35.00000    0    8   46.00000   35.00000  23.9%     -    0s
     0     0   35.00000    0    9   46.00000   35.00000  23.9%     -    0s
     0     0   35.00000    0    9   46.00000   35.00000  23.9%     -    0s
     0     2   35.00000    0    9   46.00000   35.00000  23.9%     -    0s
*  430   485              32      44.0000000   35.00000  20.5%  10.1    0s
*  811   689              32      42.0000000   35.00000  16.7%   9.5    0s
* 1739   850              32      41.0000000   35.00000  14.6%   8.9    0s
* 4449   986              33      39.0000000   35.00000  10.3%   8.7    0s

Cutting planes:
  Learned: 319
  Gomory: 2
  Cover: 8
  MIR: 50
  GUB cover: 1
  Inf proof: 1
  RLT: 2
  Relax-and-lift: 4

Explored 9220 nodes (62529 simplex iterations) in 0.53 seconds (0.23 work units)
Thread count was 18 (of 36 available processors)

Solution count 6: 39 41 42 ... 50

Optimal solution found (tolerance 1.00e-04)
Best objective 3.900000000000e+01, best bound 3.900000000000e+01, gap 0.0000%
